100 100 51291
3 34 100 49 14 100 10 23 10 50 41 13 19 50 23 28 12 9 21 19 21 45 19 5 16 23 5 22 41 76
98 36 6 26 56 3 90 95 97 47 45 12 68 46 70 82 65 86 96 64 75 26 77 84 21 69 89 63 6 30
756 2712 1633 2332 2187 470 1569 4947 2757 4274 4347 396 3866 5447 2904 6032 1799 929 5186 2120 1629 2059 2583 953 1000 2900 1102 2234 458 5458
723 2686 1818 2201 2423 590 1928 5666 3130 4291 5850 376 4499 5134 3032 6591 1646 1107 4753 2785 1719 2694 2834 856 1014 3206 1146 2052 561 6804
